p edge 64 512
e 1 59
e 1 21
e 1 63
e 1 19
e 1 42
e 1 56
e 1 6
e 1 22
e 1 11
e 1 24
e 1 40
e 1 52
e 1 2
e 1 50
e 1 20
e 2 8
e 2 26
e 2 52
e 2 14
e 2 41
e 2 28
e 2 15
e 2 35
e 2 25
e 2 48
e 2 9
e 2 5
e 2 4
e 2 23
e 2 13
e 2 37
e 2 39
e 2 12
e 2 63
e 3 55
e 3 22
e 3 62
e 3 47
e 3 42
e 3 12
e 3 25
e 3 34
e 3 20
e 3 6
e 3 37
e 4 62
e 4 57
e 4 25
e 4 29
e 4 37
e 4 33
e 4 60
e 4 59
e 4 6
e 5 43
e 5 49
e 5 53
e 5 18
e 5 25
e 5 57
e 5 44
e 5 46
e 5 7
e 5 47
e 5 41
e 5 60
e 5 17
e 5 61
e 5 20
e 5 36
e 5 59
e 6 18
e 6 9
e 6 64
e 6 15
e 6 49
e 6 32
e 6 40
e 6 36
e 6 63
e 6 47
e 6 26
e 6 55
e 6 29
e 6 11
e 7 35
e 7 56
e 7 21
e 7 9
e 7 24
e 7 14
e 7 12
e 7 36
e 7 60
e 7 25
e 7 62
e 8 25
e 8 31
e 8 21
e 8 52
e 8 29
e 8 26
e 8 47
e 8 42
e 8 50
e 8 41
e 8 44
e 8 11
e 9 34
e 9 32
e 9 43
e 9 15
e 9 26
e 9 45
e 9 60
e 9 55
e 9 35
e 10 34
e 10 12
e 10 15
e 10 26
e 10 31
e 10 53
e 10 16
e 10 50
e 10 41
e 10 63
e 10 43
e 10 36
e 10 22
e 10 45
e 10 17
e 10 55
e 11 46
e 11 50
e 11 56
e 11 13
e 11 28
e 11 17
e 11 27
e 11 20
e 11 63
e 11 15
e 11 41
e 11 49
e 11 14
e 12 34
e 12 60
e 12 51
e 12 41
e 12 37
e 12 33
e 12 29
e 12 49
e 12 20
e 13 33
e 13 27
e 13 53
e 13 34
e 13 15
e 13 28
e 13 39
e 13 59
e 13 29
e 13 41
e 13 61
e 13 38
e 13 26
e 13 22
e 14 15
e 14 23
e 14 41
e 14 39
e 14 29
e 14 63
e 14 47
e 14 17
e 14 44
e 14 34
e 14 35
e 14 30
e 14 61
e 14 42
e 14 45
e 14 18
e 14 49
e 14 28
e 14 57
e 15 60
e 15 47
e 15 51
e 15 40
e 15 50
e 15 31
e 15 57
e 15 52
e 15 34
e 16 54
e 16 27
e 16 64
e 16 32
e 16 44
e 16 46
e 16 45
e 16 43
e 16 36
e 16 59
e 16 17
e 17 46
e 17 54
e 17 55
e 17 18
e 17 58
e 17 20
e 17 49
e 17 21
e 17 26
e 17 19
e 17 40
e 17 53
e 17 22
e 17 64
e 17 31
e 18 46
e 18 20
e 18 27
e 18 28
e 18 29
e 18 23
e 18 42
e 18 26
e 18 38
e 18 44
e 18 31
e 18 40
e 18 43
e 19 50
e 19 59
e 19 22
e 19 57
e 19 48
e 19 46
e 19 29
e 19 62
e 19 55
e 19 53
e 19 26
e 19 60
e 19 36
e 20 56
e 20 23
e 20 36
e 20 45
e 20 22
e 20 29
e 20 27
e 20 52
e 20 40
e 20 60
e 20 53
e 20 46
e 20 64
e 20 58
e 20 33
e 20 63
e 21 24
e 21 27
e 21 48
e 21 62
e 21 38
e 21 57
e 21 56
e 21 31
e 21 52
e 21 41
e 21 59
e 21 64
e 22 27
e 22 28
e 22 47
e 22 34
e 22 62
e 22 59
e 22 44
e 22 64
e 22 46
e 23 44
e 23 64
e 23 45
e 23 29
e 23 38
e 23 39
e 23 35
e 23 24
e 23 46
e 24 26
e 24 30
e 24 51
e 24 48
e 24 25
e 24 42
e 24 50
e 24 54
e 24 44
e 24 53
e 24 59
e 25 33
e 25 36
e 25 56
e 25 43
e 25 60
e 25 55
e 25 50
e 25 30
e 25 40
e 25 47
e 25 63
e 26 60
e 26 54
e 26 56
e 26 61
e 26 28
e 26 64
e 26 29
e 26 49
e 26 53
e 26 42
e 26 57
e 26 44
e 26 59
e 26 43
e 26 50
e 27 56
e 27 61
e 27 40
e 27 35
e 27 58
e 27 53
e 28 63
e 28 64
e 28 52
e 28 43
e 28 53
e 28 29
e 28 35
e 28 58
e 28 51
e 28 33
e 29 46
e 29 59
e 29 31
e 29 37
e 29 54
e 29 35
e 29 61
e 29 36
e 29 39
e 29 34
e 29 52
e 29 60
e 29 51
e 29 49
e 29 32
e 30 44
e 30 34
e 30 60
e 30 39
e 30 40
e 30 53
e 30 64
e 30 32
e 30 50
e 30 33
e 31 58
e 31 47
e 31 57
e 31 60
e 31 54
e 31 48
e 31 62
e 31 34
e 31 39
e 31 41
e 31 51
e 32 61
e 32 64
e 32 39
e 32 35
e 32 42
e 32 59
e 32 44
e 33 46
e 33 63
e 33 48
e 33 51
e 33 35
e 33 64
e 33 34
e 34 48
e 34 37
e 34 63
e 34 53
e 34 56
e 34 44
e 35 50
e 35 38
e 35 39
e 35 55
e 35 64
e 35 45
e 35 47
e 35 59
e 35 46
e 35 51
e 36 60
e 36 46
e 36 49
e 36 48
e 36 37
e 36 40
e 36 59
e 37 38
e 37 47
e 37 54
e 37 39
e 38 49
e 38 42
e 38 43
e 38 60
e 38 47
e 39 52
e 39 51
e 39 50
e 39 53
e 40 43
e 40 58
e 40 60
e 40 62
e 40 50
e 40 53
e 40 63
e 40 57
e 40 61
e 40 52
e 41 47
e 41 48
e 41 51
e 42 61
e 42 49
e 43 53
e 43 47
e 43 44
e 43 58
e 43 50
e 43 64
e 43 61
e 44 55
e 44 49
e 44 50
e 44 46
e 44 45
e 44 56
e 44 64
e 45 62
e 45 54
e 45 55
e 46 57
e 46 52
e 46 53
e 46 64
e 46 51
e 46 56
e 46 55
e 47 48
e 47 54
e 47 51
e 47 57
e 47 64
e 48 52
e 48 59
e 48 60
e 49 61
e 49 58
e 49 50
e 50 51
e 50 55
e 50 58
e 50 62
e 50 60
e 51 52
e 51 54
e 51 53
e 51 60
e 52 59
e 52 61
e 52 60
e 53 61
e 53 62
e 54 58
e 54 57
e 54 62
e 55 58
e 55 63
e 56 62
e 56 57
e 57 61
e 58 59
e 59 63
e 60 64
e 60 61
e 61 63
e 61 62
